&GLOBAL
  PROJECT L-alanine
  RUN_TYPE GEO_OPT
  PRINT_LEVEL MEDIUM
&END GLOBAL

&MOTION
  &GEO_OPT
    OPTIMIZER BFGS
    MAX_ITER 100
  &END
&END MOTION

&FORCE_EVAL
  METHOD Quickstep
  &SUBSYS
    &CELL
      ABC 5.94 12.274 5.806
      ALPHA_BETA_GAMMA 90.0 90.0 90.0
    &END CELL
    &TOPOLOGY
      COORD_FILE_FORMAT CIF
      COORD_FILE_NAME Lalanine.cif
      &GENERATE
        REORDER T
      &END GENERATE 
    &END TOPOLOGY
    &KIND H
      ELEMENT   H
      BASIS_SET DZVP-GTH-PBE
      POTENTIAL GTH-PBE-q1
    &END KIND
    &KIND C
      ELEMENT   C
      BASIS_SET DZVP-GTH-PBE
      POTENTIAL GTH-PBE-q4
    &END KIND
    &KIND N
      ELEMENT   N
      BASIS_SET DZVP-GTH-PBE
      POTENTIAL GTH-PBE-q5
    &END KIND
    &KIND O
      ELEMENT   O
      BASIS_SET DZVP-GTH-PBE
      POTENTIAL GTH-PBE-q6
    &END KIND
  &END SUBSYS
  &DFT
    BASIS_SET_FILE_NAME  BASIS_SET
    POTENTIAL_FILE_NAME  GTH_POTENTIALS
    &QS
      EPS_DEFAULT 1.0E-10
    &END QS
    &MGRID
      NGRIDS 4
      CUTOFF 300
      REL_CUTOFF 60
    &END MGRID
    &XC
      &XC_FUNCTIONAL PBE
      &END XC_FUNCTIONAL
    &END XC
    &SCF
      SCF_GUESS RESTART
      EPS_SCF 1.0E-7
      MAX_SCF 300
      &DIAGONALIZATION ON
        ALGORITHM STANDARD
      &END DIAGONALIZATION
      &MIXING  T
        METHOD BROYDEN_MIXING
        ALPHA 0.4
        NBROYDEN 8
      &END MIXING
    &END SCF
  &END DFT
&END FORCE_EVAL
